
(set-logic HORN)
(define-fun zero_120 () Int 0)
(define-fun succ_117 ((x Int)) Int (+ x 1))
(declare-datatypes ((Bool_275 0)) (((false_275) (true_275))))
(declare-fun diseqBool_130 (Bool_275 Bool_275) Bool)
(declare-fun isfalse_130 (Bool_275) Bool)
(declare-fun istrue_130 (Bool_275) Bool)
(assert (isfalse_130 false_275))
(assert (istrue_130 true_275))
(assert (diseqBool_130 false_275 true_275))
(assert (diseqBool_130 true_275 false_275))
(declare-fun and_275 (Bool_275 Bool_275 Bool_275) Bool)
(declare-fun or_281 (Bool_275 Bool_275 Bool_275) Bool)
(declare-fun hence_275 (Bool_275 Bool_275 Bool_275) Bool)
(declare-fun not_279 (Bool_275 Bool_275) Bool)
(assert (and_275 false_275 false_275 false_275))
(assert (and_275 false_275 true_275 false_275))
(assert (and_275 false_275 false_275 true_275))
(assert (and_275 true_275 true_275 true_275))
(assert (or_281 false_275 false_275 false_275))
(assert (or_281 true_275 true_275 false_275))
(assert (or_281 true_275 false_275 true_275))
(assert (or_281 true_275 true_275 true_275))
(assert (hence_275 true_275 false_275 false_275))
(assert (hence_275 false_275 true_275 false_275))
(assert (hence_275 true_275 false_275 true_275))
(assert (hence_275 true_275 true_275 true_275))
(assert (not_279 true_275 false_275))
(assert (not_279 false_275 true_275))
(declare-fun diseqInt (Int Int) Bool)
(declare-fun p_334 (Int Int) Bool)
(declare-fun iszero_117 (Int) Bool)
(declare-fun issucc_117 (Int) Bool)
(assert (forall ((x_50631 Int))
	(p_334 x_50631 (succ_117 x_50631))))
(assert (iszero_117 zero_120))
(assert (forall ((x_50633 Int))
	(issucc_117 (succ_117 x_50633))))
(assert (forall ((x_50634 Int))
	(diseqInt zero_120 (succ_117 x_50634))))
(assert (forall ((x_50635 Int))
	(diseqInt (succ_117 x_50635) zero_120)))
(assert (forall ((x_50636 Int) (x_50637 Int))
	(=> (diseqInt x_50636 x_50637) (diseqInt (succ_117 x_50636) (succ_117 x_50637)))))
(declare-fun leq_45 (Bool_275 Int Int) Bool)
(assert (forall ((x_50618 Bool_275) (x_50615 Int) (z_1659 Int))
	(=> (leq_45 x_50618 z_1659 x_50615) (leq_45 x_50618 (succ_117 z_1659) (succ_117 x_50615)))))
(assert (forall ((z_1659 Int))
	(leq_45 false_275 (succ_117 z_1659) zero_120)))
(assert (forall ((y_1861 Int))
	(leq_45 true_275 zero_120 y_1861)))
(declare-fun geq_2 (Bool_275 Int Int) Bool)
(assert (forall ((x_50622 Bool_275) (x_50616 Int) (y_1862 Int))
	(=> (leq_45 x_50622 y_1862 x_50616) (geq_2 x_50622 x_50616 y_1862))))
(assert (forall ((x_50617 Int) (y_1863 Int) (z_1660 Int))
	(=> (and true (geq_2 true_275 x_50617 y_1863) (geq_2 true_275 y_1863 z_1660) (geq_2 false_275 x_50617 z_1660)) false)))
(check-sat)
